p cnf 381 1478
55 68 81 94 107 120 0 
-55 -68 0 
-55 -81 0 
-55 -94 0 
-55 -107 0 
-55 -120 0 
-68 -81 0 
-68 -94 0 
-68 -107 0 
-68 -120 0 
-81 -94 0 
-81 -107 0 
-81 -120 0 
-94 -107 0 
-94 -120 0 
-107 -120 0 
-55 -298 290 0 
-55 -298 140 0 
-206 -299 297 0 
-206 -299 148 0 
-68 -300 290 0 
-68 -300 149 0 
-220 -301 297 0 
-220 -301 157 0 
-81 -302 290 0 
-81 -302 158 0 
-234 -303 297 0 
-234 -303 166 0 
-94 -304 290 0 
-94 -304 167 0 
-248 -305 297 0 
-248 -305 175 0 
-107 -306 290 0 
-107 -306 176 0 
-262 -307 297 0 
-262 -307 184 0 
-120 -308 290 0 
-120 -308 185 0 
-276 -309 297 0 
-276 -309 193 0 
-55 -49 -310 140 0 
-55 -49 -310 206 0 
-55 -49 -310 -206 0 
-206 -194 -311 148 0 
-206 -194 -311 219 0 
-206 -194 -311 -219 0 
-55 -312 149 0 
-55 -312 220 0 
-55 -312 -206 0 
-206 -313 157 0 
-206 -313 233 0 
-206 -313 -219 0 
-55 -314 158 0 
-55 -314 234 0 
-55 -314 -206 0 
-206 -315 166 0 
-206 -315 247 0 
-206 -315 -219 0 
-55 -316 167 0 
-55 -316 248 0 
-55 -316 -206 0 
-206 -317 175 0 
-206 -317 261 0 
-206 -317 -219 0 
-55 -318 176 0 
-55 -318 262 0 
-55 -318 -206 0 
-206 -319 184 0 
-206 -319 275 0 
-206 -319 -219 0 
-55 -320 185 0 
-55 -320 276 0 
-55 -320 -206 0 
-206 -321 193 0 
-206 -321 289 0 
-206 -321 -219 0 
-68 -322 140 0 
-68 -322 206 0 
-68 -322 -220 0 
-220 -323 148 0 
-220 -323 219 0 
-220 -323 -233 0 
-68 -50 -324 149 0 
-68 -50 -324 220 0 
-68 -50 -324 -220 0 
-220 -196 -325 157 0 
-220 -196 -325 233 0 
-220 -196 -325 -233 0 
-68 -326 158 0 
-68 -326 234 0 
-68 -326 -220 0 
-220 -327 166 0 
-220 -327 247 0 
-220 -327 -233 0 
-68 -328 167 0 
-68 -328 248 0 
-68 -328 -220 0 
-220 -329 175 0 
-220 -329 261 0 
-220 -329 -233 0 
-68 -330 176 0 
-68 -330 262 0 
-68 -330 -220 0 
-220 -331 184 0 
-220 -331 275 0 
-220 -331 -233 0 
-68 -332 185 0 
-68 -332 276 0 
-68 -332 -220 0 
-220 -333 193 0 
-220 -333 289 0 
-220 -333 -233 0 
-81 -334 140 0 
-81 -334 206 0 
-81 -334 -234 0 
-234 -335 148 0 
-234 -335 219 0 
-234 -335 -247 0 
-81 -336 149 0 
-81 -336 220 0 
-81 -336 -234 0 
-234 -337 157 0 
-234 -337 233 0 
-234 -337 -247 0 
-81 -51 -338 158 0 
-81 -51 -338 234 0 
-81 -51 -338 -234 0 
-234 -198 -339 166 0 
-234 -198 -339 247 0 
-234 -198 -339 -247 0 
-81 -340 167 0 
-81 -340 248 0 
-81 -340 -234 0 
-234 -341 175 0 
-234 -341 261 0 
-234 -341 -247 0 
-81 -342 176 0 
-81 -342 262 0 
-81 -342 -234 0 
-234 -343 184 0 
-234 -343 275 0 
-234 -343 -247 0 
-81 -344 185 0 
-81 -344 276 0 
-81 -344 -234 0 
-234 -345 193 0 
-234 -345 289 0 
-234 -345 -247 0 
-94 -346 140 0 
-94 -346 206 0 
-94 -346 -248 0 
-248 -347 148 0 
-248 -347 219 0 
-248 -347 -261 0 
-94 -348 149 0 
-94 -348 220 0 
-94 -348 -248 0 
-248 -349 157 0 
-248 -349 233 0 
-248 -349 -261 0 
-94 -350 158 0 
-94 -350 234 0 
-94 -350 -248 0 
-248 -351 166 0 
-248 -351 247 0 
-248 -351 -261 0 
-94 -52 -352 167 0 
-94 -52 -352 248 0 
-94 -52 -352 -248 0 
-248 -200 -353 175 0 
-248 -200 -353 261 0 
-248 -200 -353 -261 0 
-94 -354 176 0 
-94 -354 262 0 
-94 -354 -248 0 
-248 -355 184 0 
-248 -355 275 0 
-248 -355 -261 0 
-94 -356 185 0 
-94 -356 276 0 
-94 -356 -248 0 
-248 -357 193 0 
-248 -357 289 0 
-248 -357 -261 0 
-107 -358 140 0 
-107 -358 206 0 
-107 -358 -262 0 
-262 -359 148 0 
-262 -359 219 0 
-262 -359 -275 0 
-107 -360 149 0 
-107 -360 220 0 
-107 -360 -262 0 
-262 -361 157 0 
-262 -361 233 0 
-262 -361 -275 0 
-107 -362 158 0 
-107 -362 234 0 
-107 -362 -262 0 
-262 -363 166 0 
-262 -363 247 0 
-262 -363 -275 0 
-107 -364 167 0 
-107 -364 248 0 
-107 -364 -262 0 
-262 -365 175 0 
-262 -365 261 0 
-262 -365 -275 0 
-107 -53 -366 176 0 
-107 -53 -366 262 0 
-107 -53 -366 -262 0 
-262 -202 -367 184 0 
-262 -202 -367 275 0 
-262 -202 -367 -275 0 
-107 -368 185 0 
-107 -368 276 0 
-107 -368 -262 0 
-262 -369 193 0 
-262 -369 289 0 
-262 -369 -275 0 
-120 -370 140 0 
-120 -370 206 0 
-120 -370 -276 0 
-276 -371 148 0 
-276 -371 219 0 
-276 -371 -289 0 
-120 -372 149 0 
-120 -372 220 0 
-120 -372 -276 0 
-276 -373 157 0 
-276 -373 233 0 
-276 -373 -289 0 
-120 -374 158 0 
-120 -374 234 0 
-120 -374 -276 0 
-276 -375 166 0 
-276 -375 247 0 
-276 -375 -289 0 
-120 -376 167 0 
-120 -376 248 0 
-120 -376 -276 0 
-276 -377 175 0 
-276 -377 261 0 
-276 -377 -289 0 
-120 -378 176 0 
-120 -378 262 0 
-120 -378 -276 0 
-276 -379 184 0 
-276 -379 275 0 
-276 -379 -289 0 
-120 -54 -380 185 0 
-120 -54 -380 276 0 
-120 -54 -380 -276 0 
-276 -204 -381 193 0 
-276 -204 -381 289 0 
-276 -204 -381 -289 0 
-1 140 0 
-55 -298 2 0 
-2 55 0 
-2 298 0 
-55 -49 -310 3 0 
-3 55 0 
-3 49 0 
-3 310 0 
-68 -322 4 0 
-4 68 0 
-4 322 0 
-81 -334 5 0 
-5 81 0 
-5 334 0 
-94 -346 6 0 
-6 94 0 
-6 346 0 
-107 -358 7 0 
-7 107 0 
-7 358 0 
-120 -370 8 0 
-8 120 0 
-8 370 0 
2 3 4 5 6 7 8 1 -140 0 
-140 148 0 
-206 -299 141 0 
-141 206 0 
-141 299 0 
-206 -194 -311 142 0 
-142 206 0 
-142 194 0 
-142 311 0 
-220 -323 143 0 
-143 220 0 
-143 323 0 
-234 -335 144 0 
-144 234 0 
-144 335 0 
-248 -347 145 0 
-145 248 0 
-145 347 0 
-262 -359 146 0 
-146 262 0 
-146 359 0 
-276 -371 147 0 
-147 276 0 
-147 371 0 
141 142 143 144 145 146 147 140 -148 0 
-9 149 0 
-68 -300 10 0 
-10 68 0 
-10 300 0 
-55 -312 11 0 
-11 55 0 
-11 312 0 
-68 -50 -324 12 0 
-12 68 0 
-12 50 0 
-12 324 0 
-81 -336 13 0 
-13 81 0 
-13 336 0 
-94 -348 14 0 
-14 94 0 
-14 348 0 
-107 -360 15 0 
-15 107 0 
-15 360 0 
-120 -372 16 0 
-16 120 0 
-16 372 0 
10 11 12 13 14 15 16 9 -149 0 
-149 157 0 
-220 -301 150 0 
-150 220 0 
-150 301 0 
-206 -313 151 0 
-151 206 0 
-151 313 0 
-220 -196 -325 152 0 
-152 220 0 
-152 196 0 
-152 325 0 
-234 -337 153 0 
-153 234 0 
-153 337 0 
-248 -349 154 0 
-154 248 0 
-154 349 0 
-262 -361 155 0 
-155 262 0 
-155 361 0 
-276 -373 156 0 
-156 276 0 
-156 373 0 
150 151 152 153 154 155 156 149 -157 0 
-17 158 0 
-81 -302 18 0 
-18 81 0 
-18 302 0 
-55 -314 19 0 
-19 55 0 
-19 314 0 
-68 -326 20 0 
-20 68 0 
-20 326 0 
-81 -51 -338 21 0 
-21 81 0 
-21 51 0 
-21 338 0 
-94 -350 22 0 
-22 94 0 
-22 350 0 
-107 -362 23 0 
-23 107 0 
-23 362 0 
-120 -374 24 0 
-24 120 0 
-24 374 0 
18 19 20 21 22 23 24 17 -158 0 
-158 166 0 
-234 -303 159 0 
-159 234 0 
-159 303 0 
-206 -315 160 0 
-160 206 0 
-160 315 0 
-220 -327 161 0 
-161 220 0 
-161 327 0 
-234 -198 -339 162 0 
-162 234 0 
-162 198 0 
-162 339 0 
-248 -351 163 0 
-163 248 0 
-163 351 0 
-262 -363 164 0 
-164 262 0 
-164 363 0 
-276 -375 165 0 
-165 276 0 
-165 375 0 
159 160 161 162 163 164 165 158 -166 0 
-25 167 0 
-94 -304 26 0 
-26 94 0 
-26 304 0 
-55 -316 27 0 
-27 55 0 
-27 316 0 
-68 -328 28 0 
-28 68 0 
-28 328 0 
-81 -340 29 0 
-29 81 0 
-29 340 0 
-94 -52 -352 30 0 
-30 94 0 
-30 52 0 
-30 352 0 
-107 -364 31 0 
-31 107 0 
-31 364 0 
-120 -376 32 0 
-32 120 0 
-32 376 0 
26 27 28 29 30 31 32 25 -167 0 
-167 175 0 
-248 -305 168 0 
-168 248 0 
-168 305 0 
-206 -317 169 0 
-169 206 0 
-169 317 0 
-220 -329 170 0 
-170 220 0 
-170 329 0 
-234 -341 171 0 
-171 234 0 
-171 341 0 
-248 -200 -353 172 0 
-172 248 0 
-172 200 0 
-172 353 0 
-262 -365 173 0 
-173 262 0 
-173 365 0 
-276 -377 174 0 
-174 276 0 
-174 377 0 
168 169 170 171 172 173 174 167 -175 0 
-33 176 0 
-107 -306 34 0 
-34 107 0 
-34 306 0 
-55 -318 35 0 
-35 55 0 
-35 318 0 
-68 -330 36 0 
-36 68 0 
-36 330 0 
-81 -342 37 0 
-37 81 0 
-37 342 0 
-94 -354 38 0 
-38 94 0 
-38 354 0 
-107 -53 -366 39 0 
-39 107 0 
-39 53 0 
-39 366 0 
-120 -378 40 0 
-40 120 0 
-40 378 0 
34 35 36 37 38 39 40 33 -176 0 
-176 184 0 
-262 -307 177 0 
-177 262 0 
-177 307 0 
-206 -319 178 0 
-178 206 0 
-178 319 0 
-220 -331 179 0 
-179 220 0 
-179 331 0 
-234 -343 180 0 
-180 234 0 
-180 343 0 
-248 -355 181 0 
-181 248 0 
-181 355 0 
-262 -202 -367 182 0 
-182 262 0 
-182 202 0 
-182 367 0 
-276 -379 183 0 
-183 276 0 
-183 379 0 
177 178 179 180 181 182 183 176 -184 0 
-41 185 0 
-120 -308 42 0 
-42 120 0 
-42 308 0 
-55 -320 43 0 
-43 55 0 
-43 320 0 
-68 -332 44 0 
-44 68 0 
-44 332 0 
-81 -344 45 0 
-45 81 0 
-45 344 0 
-94 -356 46 0 
-46 94 0 
-46 356 0 
-107 -368 47 0 
-47 107 0 
-47 368 0 
-120 -54 -380 48 0 
-48 120 0 
-48 54 0 
-48 380 0 
42 43 44 45 46 47 48 41 -185 0 
-185 193 0 
-276 -309 186 0 
-186 276 0 
-186 309 0 
-206 -321 187 0 
-187 206 0 
-187 321 0 
-220 -333 188 0 
-188 220 0 
-188 333 0 
-234 -345 189 0 
-189 234 0 
-189 345 0 
-248 -357 190 0 
-190 248 0 
-190 357 0 
-262 -369 191 0 
-191 262 0 
-191 369 0 
-276 -204 -381 192 0 
-192 276 0 
-192 204 0 
-192 381 0 
186 187 188 189 190 191 192 185 -193 0 
-49 194 0 
49 -194 0 
-194 195 0 
194 -195 0 
-50 196 0 
50 -196 0 
-196 197 0 
196 -197 0 
-51 198 0 
51 -198 0 
-198 199 0 
198 -199 0 
-52 200 0 
52 -200 0 
-200 201 0 
200 -201 0 
-53 202 0 
53 -202 0 
-202 203 0 
202 -203 0 
-54 204 0 
54 -204 0 
-204 205 0 
204 -205 0 
-55 -49 -310 56 0 
-56 55 0 
-56 49 0 
-56 310 0 
-55 -312 57 0 
-57 55 0 
-57 312 0 
-55 -314 58 0 
-58 55 0 
-58 314 0 
-55 -316 59 0 
-59 55 0 
-59 316 0 
-55 -318 60 0 
-60 55 0 
-60 318 0 
-55 -320 61 0 
-61 55 0 
-61 320 0 
56 57 58 59 60 61 -55 206 0 
-55 -49 -310 62 0 
-62 55 0 
-62 49 0 
-62 310 0 
-68 -322 63 0 
-63 68 0 
-63 322 0 
-81 -334 64 0 
-64 81 0 
-64 334 0 
-94 -346 65 0 
-65 94 0 
-65 346 0 
-107 -358 66 0 
-66 107 0 
-66 358 0 
-120 -370 67 0 
-67 120 0 
-67 370 0 
62 63 64 65 66 67 55 -206 0 
-206 -194 -311 207 0 
-207 206 0 
-207 194 0 
-207 311 0 
-206 -313 208 0 
-208 206 0 
-208 313 0 
-206 -315 209 0 
-209 206 0 
-209 315 0 
-206 -317 210 0 
-210 206 0 
-210 317 0 
-206 -319 211 0 
-211 206 0 
-211 319 0 
-206 -321 212 0 
-212 206 0 
-212 321 0 
207 208 209 210 211 212 -206 219 0 
-206 -194 -311 213 0 
-213 206 0 
-213 194 0 
-213 311 0 
-220 -323 214 0 
-214 220 0 
-214 323 0 
-234 -335 215 0 
-215 234 0 
-215 335 0 
-248 -347 216 0 
-216 248 0 
-216 347 0 
-262 -359 217 0 
-217 262 0 
-217 359 0 
-276 -371 218 0 
-218 276 0 
-218 371 0 
213 214 215 216 217 218 206 -219 0 
-68 -322 69 0 
-69 68 0 
-69 322 0 
-68 -50 -324 70 0 
-70 68 0 
-70 50 0 
-70 324 0 
-68 -326 71 0 
-71 68 0 
-71 326 0 
-68 -328 72 0 
-72 68 0 
-72 328 0 
-68 -330 73 0 
-73 68 0 
-73 330 0 
-68 -332 74 0 
-74 68 0 
-74 332 0 
69 70 71 72 73 74 -68 220 0 
-55 -312 75 0 
-75 55 0 
-75 312 0 
-68 -50 -324 76 0 
-76 68 0 
-76 50 0 
-76 324 0 
-81 -336 77 0 
-77 81 0 
-77 336 0 
-94 -348 78 0 
-78 94 0 
-78 348 0 
-107 -360 79 0 
-79 107 0 
-79 360 0 
-120 -372 80 0 
-80 120 0 
-80 372 0 
75 76 77 78 79 80 68 -220 0 
-220 -323 221 0 
-221 220 0 
-221 323 0 
-220 -196 -325 222 0 
-222 220 0 
-222 196 0 
-222 325 0 
-220 -327 223 0 
-223 220 0 
-223 327 0 
-220 -329 224 0 
-224 220 0 
-224 329 0 
-220 -331 225 0 
-225 220 0 
-225 331 0 
-220 -333 226 0 
-226 220 0 
-226 333 0 
221 222 223 224 225 226 -220 233 0 
-206 -313 227 0 
-227 206 0 
-227 313 0 
-220 -196 -325 228 0 
-228 220 0 
-228 196 0 
-228 325 0 
-234 -337 229 0 
-229 234 0 
-229 337 0 
-248 -349 230 0 
-230 248 0 
-230 349 0 
-262 -361 231 0 
-231 262 0 
-231 361 0 
-276 -373 232 0 
-232 276 0 
-232 373 0 
227 228 229 230 231 232 220 -233 0 
-81 -334 82 0 
-82 81 0 
-82 334 0 
-81 -336 83 0 
-83 81 0 
-83 336 0 
-81 -51 -338 84 0 
-84 81 0 
-84 51 0 
-84 338 0 
-81 -340 85 0 
-85 81 0 
-85 340 0 
-81 -342 86 0 
-86 81 0 
-86 342 0 
-81 -344 87 0 
-87 81 0 
-87 344 0 
82 83 84 85 86 87 -81 234 0 
-55 -314 88 0 
-88 55 0 
-88 314 0 
-68 -326 89 0 
-89 68 0 
-89 326 0 
-81 -51 -338 90 0 
-90 81 0 
-90 51 0 
-90 338 0 
-94 -350 91 0 
-91 94 0 
-91 350 0 
-107 -362 92 0 
-92 107 0 
-92 362 0 
-120 -374 93 0 
-93 120 0 
-93 374 0 
88 89 90 91 92 93 81 -234 0 
-234 -335 235 0 
-235 234 0 
-235 335 0 
-234 -337 236 0 
-236 234 0 
-236 337 0 
-234 -198 -339 237 0 
-237 234 0 
-237 198 0 
-237 339 0 
-234 -341 238 0 
-238 234 0 
-238 341 0 
-234 -343 239 0 
-239 234 0 
-239 343 0 
-234 -345 240 0 
-240 234 0 
-240 345 0 
235 236 237 238 239 240 -234 247 0 
-206 -315 241 0 
-241 206 0 
-241 315 0 
-220 -327 242 0 
-242 220 0 
-242 327 0 
-234 -198 -339 243 0 
-243 234 0 
-243 198 0 
-243 339 0 
-248 -351 244 0 
-244 248 0 
-244 351 0 
-262 -363 245 0 
-245 262 0 
-245 363 0 
-276 -375 246 0 
-246 276 0 
-246 375 0 
241 242 243 244 245 246 234 -247 0 
-94 -346 95 0 
-95 94 0 
-95 346 0 
-94 -348 96 0 
-96 94 0 
-96 348 0 
-94 -350 97 0 
-97 94 0 
-97 350 0 
-94 -52 -352 98 0 
-98 94 0 
-98 52 0 
-98 352 0 
-94 -354 99 0 
-99 94 0 
-99 354 0 
-94 -356 100 0 
-100 94 0 
-100 356 0 
95 96 97 98 99 100 -94 248 0 
-55 -316 101 0 
-101 55 0 
-101 316 0 
-68 -328 102 0 
-102 68 0 
-102 328 0 
-81 -340 103 0 
-103 81 0 
-103 340 0 
-94 -52 -352 104 0 
-104 94 0 
-104 52 0 
-104 352 0 
-107 -364 105 0 
-105 107 0 
-105 364 0 
-120 -376 106 0 
-106 120 0 
-106 376 0 
101 102 103 104 105 106 94 -248 0 
-248 -347 249 0 
-249 248 0 
-249 347 0 
-248 -349 250 0 
-250 248 0 
-250 349 0 
-248 -351 251 0 
-251 248 0 
-251 351 0 
-248 -200 -353 252 0 
-252 248 0 
-252 200 0 
-252 353 0 
-248 -355 253 0 
-253 248 0 
-253 355 0 
-248 -357 254 0 
-254 248 0 
-254 357 0 
249 250 251 252 253 254 -248 261 0 
-206 -317 255 0 
-255 206 0 
-255 317 0 
-220 -329 256 0 
-256 220 0 
-256 329 0 
-234 -341 257 0 
-257 234 0 
-257 341 0 
-248 -200 -353 258 0 
-258 248 0 
-258 200 0 
-258 353 0 
-262 -365 259 0 
-259 262 0 
-259 365 0 
-276 -377 260 0 
-260 276 0 
-260 377 0 
255 256 257 258 259 260 248 -261 0 
-107 -358 108 0 
-108 107 0 
-108 358 0 
-107 -360 109 0 
-109 107 0 
-109 360 0 
-107 -362 110 0 
-110 107 0 
-110 362 0 
-107 -364 111 0 
-111 107 0 
-111 364 0 
-107 -53 -366 112 0 
-112 107 0 
-112 53 0 
-112 366 0 
-107 -368 113 0 
-113 107 0 
-113 368 0 
108 109 110 111 112 113 -107 262 0 
-55 -318 114 0 
-114 55 0 
-114 318 0 
-68 -330 115 0 
-115 68 0 
-115 330 0 
-81 -342 116 0 
-116 81 0 
-116 342 0 
-94 -354 117 0 
-117 94 0 
-117 354 0 
-107 -53 -366 118 0 
-118 107 0 
-118 53 0 
-118 366 0 
-120 -378 119 0 
-119 120 0 
-119 378 0 
114 115 116 117 118 119 107 -262 0 
-262 -359 263 0 
-263 262 0 
-263 359 0 
-262 -361 264 0 
-264 262 0 
-264 361 0 
-262 -363 265 0 
-265 262 0 
-265 363 0 
-262 -365 266 0 
-266 262 0 
-266 365 0 
-262 -202 -367 267 0 
-267 262 0 
-267 202 0 
-267 367 0 
-262 -369 268 0 
-268 262 0 
-268 369 0 
263 264 265 266 267 268 -262 275 0 
-206 -319 269 0 
-269 206 0 
-269 319 0 
-220 -331 270 0 
-270 220 0 
-270 331 0 
-234 -343 271 0 
-271 234 0 
-271 343 0 
-248 -355 272 0 
-272 248 0 
-272 355 0 
-262 -202 -367 273 0 
-273 262 0 
-273 202 0 
-273 367 0 
-276 -379 274 0 
-274 276 0 
-274 379 0 
269 270 271 272 273 274 262 -275 0 
-120 -370 121 0 
-121 120 0 
-121 370 0 
-120 -372 122 0 
-122 120 0 
-122 372 0 
-120 -374 123 0 
-123 120 0 
-123 374 0 
-120 -376 124 0 
-124 120 0 
-124 376 0 
-120 -378 125 0 
-125 120 0 
-125 378 0 
-120 -54 -380 126 0 
-126 120 0 
-126 54 0 
-126 380 0 
121 122 123 124 125 126 -120 276 0 
-55 -320 127 0 
-127 55 0 
-127 320 0 
-68 -332 128 0 
-128 68 0 
-128 332 0 
-81 -344 129 0 
-129 81 0 
-129 344 0 
-94 -356 130 0 
-130 94 0 
-130 356 0 
-107 -368 131 0 
-131 107 0 
-131 368 0 
-120 -54 -380 132 0 
-132 120 0 
-132 54 0 
-132 380 0 
127 128 129 130 131 132 120 -276 0 
-276 -371 277 0 
-277 276 0 
-277 371 0 
-276 -373 278 0 
-278 276 0 
-278 373 0 
-276 -375 279 0 
-279 276 0 
-279 375 0 
-276 -377 280 0 
-280 276 0 
-280 377 0 
-276 -379 281 0 
-281 276 0 
-281 379 0 
-276 -204 -381 282 0 
-282 276 0 
-282 204 0 
-282 381 0 
277 278 279 280 281 282 -276 289 0 
-206 -321 283 0 
-283 206 0 
-283 321 0 
-220 -333 284 0 
-284 220 0 
-284 333 0 
-234 -345 285 0 
-285 234 0 
-285 345 0 
-248 -357 286 0 
-286 248 0 
-286 357 0 
-262 -369 287 0 
-287 262 0 
-287 369 0 
-276 -204 -381 288 0 
-288 276 0 
-288 204 0 
-288 381 0 
283 284 285 286 287 288 276 -289 0 
-133 290 0 
-55 -298 134 0 
-134 55 0 
-134 298 0 
-68 -300 135 0 
-135 68 0 
-135 300 0 
-81 -302 136 0 
-136 81 0 
-136 302 0 
-94 -304 137 0 
-137 94 0 
-137 304 0 
-107 -306 138 0 
-138 107 0 
-138 306 0 
-120 -308 139 0 
-139 120 0 
-139 308 0 
134 135 136 137 138 139 133 -290 0 
-290 297 0 
-206 -299 291 0 
-291 206 0 
-291 299 0 
-220 -301 292 0 
-292 220 0 
-292 301 0 
-234 -303 293 0 
-293 234 0 
-293 303 0 
-248 -305 294 0 
-294 248 0 
-294 305 0 
-262 -307 295 0 
-295 262 0 
-295 307 0 
-276 -309 296 0 
-296 276 0 
-296 309 0 
291 292 293 294 295 296 290 -297 0 
-310 -312 0 
-310 -314 0 
-310 -316 0 
-310 -318 0 
-310 -320 0 
-310 -322 0 
-310 -334 0 
-310 -346 0 
-310 -358 0 
-310 -370 0 
-311 -313 0 
-311 -315 0 
-311 -317 0 
-311 -319 0 
-311 -321 0 
-311 -323 0 
-311 -335 0 
-311 -347 0 
-311 -359 0 
-311 -371 0 
-312 -322 0 
-312 -324 0 
-312 -326 0 
-312 -328 0 
-312 -330 0 
-312 -332 0 
-312 -334 0 
-312 -346 0 
-312 -358 0 
-312 -370 0 
-313 -323 0 
-313 -325 0 
-313 -327 0 
-313 -329 0 
-313 -331 0 
-313 -333 0 
-313 -335 0 
-313 -347 0 
-313 -359 0 
-313 -371 0 
-314 -322 0 
-314 -334 0 
-314 -336 0 
-314 -338 0 
-314 -340 0 
-314 -342 0 
-314 -344 0 
-314 -346 0 
-314 -358 0 
-314 -370 0 
-315 -323 0 
-315 -335 0 
-315 -337 0 
-315 -339 0 
-315 -341 0 
-315 -343 0 
-315 -345 0 
-315 -347 0 
-315 -359 0 
-315 -371 0 
-316 -322 0 
-316 -334 0 
-316 -346 0 
-316 -348 0 
-316 -350 0 
-316 -352 0 
-316 -354 0 
-316 -356 0 
-316 -358 0 
-316 -370 0 
-317 -323 0 
-317 -335 0 
-317 -347 0 
-317 -349 0 
-317 -351 0 
-317 -353 0 
-317 -355 0 
-317 -357 0 
-317 -359 0 
-317 -371 0 
-318 -322 0 
-318 -334 0 
-318 -346 0 
-318 -358 0 
-318 -360 0 
-318 -362 0 
-318 -364 0 
-318 -366 0 
-318 -368 0 
-318 -370 0 
-319 -323 0 
-319 -335 0 
-319 -347 0 
-319 -359 0 
-319 -361 0 
-319 -363 0 
-319 -365 0 
-319 -367 0 
-319 -369 0 
-319 -371 0 
-320 -322 0 
-320 -334 0 
-320 -346 0 
-320 -358 0 
-320 -370 0 
-320 -372 0 
-320 -374 0 
-320 -376 0 
-320 -378 0 
-320 -380 0 
-321 -323 0 
-321 -335 0 
-321 -347 0 
-321 -359 0 
-321 -371 0 
-321 -373 0 
-321 -375 0 
-321 -377 0 
-321 -379 0 
-321 -381 0 
-322 -324 0 
-322 -336 0 
-322 -348 0 
-322 -360 0 
-322 -372 0 
-323 -325 0 
-323 -337 0 
-323 -349 0 
-323 -361 0 
-323 -373 0 
-324 -326 0 
-324 -328 0 
-324 -330 0 
-324 -332 0 
-324 -336 0 
-324 -348 0 
-324 -360 0 
-324 -372 0 
-325 -327 0 
-325 -329 0 
-325 -331 0 
-325 -333 0 
-325 -337 0 
-325 -349 0 
-325 -361 0 
-325 -373 0 
-326 -334 0 
-326 -336 0 
-326 -338 0 
-326 -340 0 
-326 -342 0 
-326 -344 0 
-326 -348 0 
-326 -360 0 
-326 -372 0 
-327 -335 0 
-327 -337 0 
-327 -339 0 
-327 -341 0 
-327 -343 0 
-327 -345 0 
-327 -349 0 
-327 -361 0 
-327 -373 0 
-328 -336 0 
-328 -346 0 
-328 -348 0 
-328 -350 0 
-328 -352 0 
-328 -354 0 
-328 -356 0 
-328 -360 0 
-328 -372 0 
-329 -337 0 
-329 -347 0 
-329 -349 0 
-329 -351 0 
-329 -353 0 
-329 -355 0 
-329 -357 0 
-329 -361 0 
-329 -373 0 
-330 -336 0 
-330 -348 0 
-330 -358 0 
-330 -360 0 
-330 -362 0 
-330 -364 0 
-330 -366 0 
-330 -368 0 
-330 -372 0 
-331 -337 0 
-331 -349 0 
-331 -359 0 
-331 -361 0 
-331 -363 0 
-331 -365 0 
-331 -367 0 
-331 -369 0 
-331 -373 0 
-332 -336 0 
-332 -348 0 
-332 -360 0 
-332 -370 0 
-332 -372 0 
-332 -374 0 
-332 -376 0 
-332 -378 0 
-332 -380 0 
-333 -337 0 
-333 -349 0 
-333 -361 0 
-333 -371 0 
-333 -373 0 
-333 -375 0 
-333 -377 0 
-333 -379 0 
-333 -381 0 
-334 -338 0 
-334 -350 0 
-334 -362 0 
-334 -374 0 
-335 -339 0 
-335 -351 0 
-335 -363 0 
-335 -375 0 
-336 -338 0 
-336 -350 0 
-336 -362 0 
-336 -374 0 
-337 -339 0 
-337 -351 0 
-337 -363 0 
-337 -375 0 
-338 -340 0 
-338 -342 0 
-338 -344 0 
-338 -350 0 
-338 -362 0 
-338 -374 0 
-339 -341 0 
-339 -343 0 
-339 -345 0 
-339 -351 0 
-339 -363 0 
-339 -375 0 
-340 -346 0 
-340 -348 0 
-340 -350 0 
-340 -352 0 
-340 -354 0 
-340 -356 0 
-340 -362 0 
-340 -374 0 
-341 -347 0 
-341 -349 0 
-341 -351 0 
-341 -353 0 
-341 -355 0 
-341 -357 0 
-341 -363 0 
-341 -375 0 
-342 -350 0 
-342 -358 0 
-342 -360 0 
-342 -362 0 
-342 -364 0 
-342 -366 0 
-342 -368 0 
-342 -374 0 
-343 -351 0 
-343 -359 0 
-343 -361 0 
-343 -363 0 
-343 -365 0 
-343 -367 0 
-343 -369 0 
-343 -375 0 
-344 -350 0 
-344 -362 0 
-344 -370 0 
-344 -372 0 
-344 -374 0 
-344 -376 0 
-344 -378 0 
-344 -380 0 
-345 -351 0 
-345 -363 0 
-345 -371 0 
-345 -373 0 
-345 -375 0 
-345 -377 0 
-345 -379 0 
-345 -381 0 
-346 -352 0 
-346 -364 0 
-346 -376 0 
-347 -353 0 
-347 -365 0 
-347 -377 0 
-348 -352 0 
-348 -364 0 
-348 -376 0 
-349 -353 0 
-349 -365 0 
-349 -377 0 
-350 -352 0 
-350 -364 0 
-350 -376 0 
-351 -353 0 
-351 -365 0 
-351 -377 0 
-352 -354 0 
-352 -356 0 
-352 -364 0 
-352 -376 0 
-353 -355 0 
-353 -357 0 
-353 -365 0 
-353 -377 0 
-354 -358 0 
-354 -360 0 
-354 -362 0 
-354 -364 0 
-354 -366 0 
-354 -368 0 
-354 -376 0 
-355 -359 0 
-355 -361 0 
-355 -363 0 
-355 -365 0 
-355 -367 0 
-355 -369 0 
-355 -377 0 
-356 -364 0 
-356 -370 0 
-356 -372 0 
-356 -374 0 
-356 -376 0 
-356 -378 0 
-356 -380 0 
-357 -365 0 
-357 -371 0 
-357 -373 0 
-357 -375 0 
-357 -377 0 
-357 -379 0 
-357 -381 0 
-358 -366 0 
-358 -378 0 
-359 -367 0 
-359 -379 0 
-360 -366 0 
-360 -378 0 
-361 -367 0 
-361 -379 0 
-362 -366 0 
-362 -378 0 
-363 -367 0 
-363 -379 0 
-364 -366 0 
-364 -378 0 
-365 -367 0 
-365 -379 0 
-366 -368 0 
-366 -378 0 
-367 -369 0 
-367 -379 0 
-368 -370 0 
-368 -372 0 
-368 -374 0 
-368 -376 0 
-368 -378 0 
-368 -380 0 
-369 -371 0 
-369 -373 0 
-369 -375 0 
-369 -377 0 
-369 -379 0 
-369 -381 0 
-370 -380 0 
-371 -381 0 
-372 -380 0 
-373 -381 0 
-374 -380 0 
-375 -381 0 
-376 -380 0 
-377 -381 0 
-378 -380 0 
-379 -381 0 
